c status 104 1469392097101
c status 76 1469392097104
c status 70 1469392097153
c status 69 1469392097175
c status 68 1469392097221
c status 67 1469392097382
c status 66 1469392097788
s td 39 66 169
b 1 21 16 18 22 17 20 154 156 5 4 6 11 10 9 13 37 38 68 35 52 50 8 12 64 78 15 86
b 2 16 18 22 17 20 154 156 5 4 6 168 167 11 10 9 13 37 32 66 33 38 68 35 52 50 8 149 12 48 64 74 78 30 152 166 15 63 60 45 25 86
b 3 18 22 17 20 154 156 5 4 6 169 168 167 11 10 9 13 34 37 32 66 70 33 38 65 68 35 52 50 8 149 12 48 64 74 62 78 30 152 166 76 15 63 60 45 2 25 98 86
b 4 155 153 157 22 17 20 154 156 5 4 169 134 146 75 32 66 51 35 147 149 152 151 61 46 2 25 86 122 110
b 5 153 157 22 17 20 154 156 5 4 169 168 167 134 146 49 37 75 32 66 33 51 35 53 29 147 149 64 152 151 59 73 61 15 44 46 2 25 86 122 110
b 6 157 22 17 20 154 156 5 4 6 169 168 167 134 146 49 34 37 75 32 66 70 33 38 51 35 53 29 147 149 64 77 152 151 59 73 61 15 63 44 46 2 25 98 86 122 110
b 7 22 17 20 154 156 5 4 6 169 168 167 11 10 9 13 134 146 49 34 37 75 32 66 70 33 38 51 65 68 35 53 52 50 8 29 147 149 12 48 64 77 74 62 78 30 152 166 151 59 76 73 61 15 63 60 45 44 46 2 25 98 86 122 110
b 8 5 4 6 169 168 167 11 10 158 9 13 134 163 160 161 146 49 34 37 75 32 66 70 33 38 51 65 68 35 53 52 50 8 29 147 149 165 12 48 64 77 74 62 78 30 164 152 166 151 59 76 73 61 15 63 60 45 44 46 2 25 98 86 122 110
b 9 7 31 43 55 67 19 162 27 42 150 11 49 32 65 8 74 59 15 1
b 10 31 43 55 67 19 162 27 42 39 150 11 49 34 32 51 65 68 8 74 59 76 61 15 45 1
b 11 43 55 67 19 162 27 42 54 39 150 11 49 34 32 70 51 65 68 52 8 77 74 62 59 76 61 15 45 46 1
b 12 55 67 19 162 27 42 54 39 56 71 150 11 49 34 32 70 51 65 68 52 8 77 74 62 78 59 76 61 15 63 45 46 1
b 13 67 19 162 27 42 54 39 72 56 71 150 11 49 34 32 70 51 65 68 52 8 77 74 62 78 59 76 61 15 63 45 46 1
b 14 24 23 28 41 26 40 27 39 72 56 150 10 9 163 160 34 37 75 32 33 38 35 8 29 147 30 59 122
b 15 57 23 28 41 26 40 162 42 54 72 56 10 13 134 161 66 70 65 68 64 74 62 152 166 59 73 61 63 60
b 16 23 28 41 26 40 19 162 27 42 54 39 72 56 71 150 10 158 9 13 134 163 160 161 146 34 37 75 32 66 70 33 38 65 68 35 8 29 147 64 74 62 30 152 166 59 73 61 63 60 122 110 1
b 17 28 41 26 40 19 162 27 42 54 39 72 56 71 150 11 10 158 9 13 134 163 160 161 146 34 37 75 32 66 70 33 38 65 68 35 8 29 147 12 64 74 62 78 30 164 152 166 59 73 61 63 60 45 44 122 110 1
b 18 41 26 40 19 162 27 42 54 39 72 56 71 150 11 10 158 9 13 134 163 160 161 146 49 34 37 75 32 66 70 33 38 51 65 68 35 53 52 50 8 29 147 165 12 48 64 74 62 78 30 164 152 166 151 59 73 61 63 60 45 44 46 122 110 1
b 19 26 40 19 162 27 42 54 39 72 56 71 150 11 10 158 9 13 134 163 160 161 146 49 34 37 75 32 66 70 33 38 51 65 68 35 53 52 50 8 29 147 149 165 12 48 64 74 62 78 30 164 152 166 151 59 76 73 61 63 60 45 44 46 122 110 1
b 20 19 162 27 42 54 39 72 56 71 150 11 10 158 9 13 134 163 160 161 146 49 34 37 75 32 66 70 33 38 51 65 68 35 53 52 50 8 29 147 149 165 12 48 64 77 74 62 78 30 164 152 166 151 59 76 73 61 15 63 60 45 44 46 122 110 1
b 21 11 10 158 9 13 134 163 160 161 146 49 34 37 75 32 66 70 33 38 51 65 68 35 53 52 50 8 29 147 149 165 12 48 64 77 74 62 78 30 164 152 166 151 59 76 73 61 15 63 60 45 44 46 2 25 98 86 122 110 1
b 22 104 126 112 93 115 108 82 80 99 96 94 81 128 79 123 143 138
b 23 114 126 112 145 93 108 111 113 80 99 129 83 130 97 107 105 101 103 100 102 106 143 109 98
b 24 126 112 145 93 115 108 111 113 82 80 99 96 94 129 81 83 128 130 125 97 79 107 105 101 103 100 102 123 106 140 143 109 138 98
b 25 112 145 93 115 108 111 113 82 80 99 96 94 127 129 81 83 128 130 125 95 97 79 107 105 101 103 100 102 69 123 106 140 143 109 141 138 25 98 1
b 26 144 142 145 115 111 113 58 94 129 81 128 130 97 131 132 133 136 135 140 143 141 138 139 86 110
b 27 142 145 93 115 108 111 113 58 99 94 127 129 81 128 130 125 95 97 79 131 132 133 136 135 140 36 91 143 141 138 139 2 86 110
b 28 145 93 115 108 111 113 82 58 80 99 96 94 127 129 81 83 128 130 125 95 97 79 107 105 131 132 101 103 133 136 100 102 69 123 135 106 140 36 91 143 109 141 138 139 2 25 98 86 122 110 1
b 29 93 115 108 111 113 82 58 80 99 96 94 127 129 81 83 128 130 125 95 97 79 107 105 131 132 101 103 133 136 100 102 69 123 135 106 140 36 91 143 109 141 92 138 139 121 2 25 98 86 122 110 1
b 30 115 108 111 113 82 58 80 99 96 94 127 129 81 83 128 130 125 95 97 79 107 105 131 132 101 103 133 136 100 102 69 123 135 106 140 36 91 124 143 109 141 92 138 139 121 2 25 98 86 122 110 1
b 31 3 47 116 119 89 58 80 81 83 79 101 103 14 69 159 137 148 123 135 106 140 36 87 88
b 32 47 116 119 90 89 58 80 127 81 83 79 107 105 101 103 133 14 69 159 137 148 123 135 106 140 36 87 88 91 143 109 92 139
b 33 85 117 119 90 89 99 96 94 95 97 132 101 136 100 102 159 137 148 84 87 88 91 92 25
b 34 118 120 117 116 119 89 127 129 128 130 125 132 101 103 133 102 159 123 135 36 84 87 124 121
b 35 120 117 116 119 89 82 58 127 129 128 130 125 105 132 101 103 133 136 102 14 159 148 123 135 106 36 84 87 91 124 138 121
b 36 117 116 119 90 89 82 58 99 96 94 127 129 128 130 125 95 97 105 131 132 101 103 133 136 100 102 14 159 137 148 123 135 106 36 84 87 88 91 124 92 138 121 25 98
b 37 116 119 90 89 82 58 80 99 96 94 127 129 81 83 128 130 125 95 97 79 107 105 131 132 101 103 133 136 100 102 14 69 159 137 148 123 135 106 140 36 84 87 88 91 124 143 109 92 138 139 121 25 98 86 110 1
b 38 90 89 82 58 80 99 96 94 127 129 81 83 128 130 125 95 97 79 107 105 131 132 101 103 133 136 100 102 14 69 159 137 148 123 135 106 140 36 84 87 88 91 124 143 109 141 92 138 139 121 25 98 86 110 1
b 39 82 58 80 99 96 94 127 129 81 83 128 130 125 95 97 79 107 105 131 132 101 103 133 136 100 102 14 69 159 137 148 123 135 106 140 36 84 87 88 91 124 143 109 141 92 138 139 121 2 25 98 86 122 110 1
1 2
2 3
3 7
7 8
8 21
21 20
20 19
19 18
18 17
17 16
7 6
6 5
20 13
13 12
12 11
16 15
5 4
16 14
11 10
10 9
21 28
28 29
29 30
30 39
39 38
38 37
37 36
28 25
25 24
28 27
37 32
36 35
27 26
36 33
32 31
24 23
35 34
24 22
